s td 8 13 20
b 1 1 4 5 8 9 10 11 13 14 17 18 19 20
b 2 3 4 5 8 9 10 11 13 14 18 19 20
b 3 3 4 5 6 8 10 11 13 14 19 20
b 4 2 3 5 6 8 11 19 20
b 5 1 4 5 7 9 10 11 13 14 17 20
b 6 1 4 7 9 10 11 12 14 17
b 7 1 5 8 13 15 17 18 19
b 8 4 9 13 14 16 19 20
1 2
1 5
1 7
1 8
2 3
3 4
5 6
